p edge 34 134
v 1 860
v 2 80
v 3 860
v 4 88
v 5 150
v 6 40
v 7 344
v 8 95
v 9 88
v 10 73
v 11 480
v 12 50
v 13 405
v 14 45
v 15 56
v 16 67
v 17 345
v 18 5
v 19 56
v 20 915
v 21 519
v 22 395
v 23 258
v 24 78
v 25 366
v 26 63
v 27 37
v 28 15
v 29 466
v 30 173
v 31 80
v 32 700
v 33 16
v 34 86
e 1 2
e 1 3
e 1 4
e 1 5
e 1 11
e 1 16
e 1 26
e 2 3
e 2 4
e 2 7
e 2 12
e 2 18
e 2 31
e 3 4
e 3 13
e 3 19
e 3 23
e 3 28
e 4 10
e 4 15
e 4 21
e 4 34
e 5 6
e 5 7
e 5 8
e 5 9
e 5 10
e 5 11
e 5 16
e 5 26
e 6 7
e 6 8
e 6 9
e 6 10
e 6 17
e 6 22
e 6 27
e 6 30
e 7 8
e 7 9
e 7 10
e 7 12
e 7 18
e 7 31
e 8 9
e 8 10
e 8 14
e 8 24
e 8 29
e 8 32
e 9 10
e 9 20
e 9 25
e 9 33
e 10 15
e 10 21
e 10 34
e 11 12
e 11 13
e 11 14
e 11 15
e 11 16
e 11 26
e 12 13
e 12 14
e 12 15
e 12 18
e 12 31
e 13 14
e 13 15
e 13 19
e 13 23
e 13 28
e 14 15
e 14 24
e 14 29
e 14 32
e 15 21
e 15 34
e 16 17
e 16 18
e 16 19
e 16 20
e 16 21
e 16 26
e 17 18
e 17 19
e 17 20
e 17 21
e 17 22
e 17 27
e 17 30
e 18 19
e 18 20
e 18 21
e 18 31
e 19 20
e 19 21
e 19 23
e 19 28
e 20 21
e 20 25
e 20 33
e 21 34
e 22 23
e 22 24
e 22 25
e 22 27
e 22 30
e 23 24
e 23 25
e 23 28
e 24 25
e 24 29
e 24 32
e 25 33
e 26 27
e 26 28
e 26 29
e 27 28
e 27 29
e 27 30
e 28 29
e 29 32
e 30 31
e 30 32
e 30 33
e 30 34
e 31 32
e 31 33
e 31 34
e 32 33
e 32 34
e 33 34
